20
90
0 1 99 31
0 2 88 31
0 3 75 31
0 4 99 31
0 5 80 31
0 6 85 31
0 7 15 31
0 8 10 31
0 9 90 31
0 10 79 31
0 11 81 31
0 12 85 31
0 13 99 31
0 14 92 31
0 15 91 31
0 16 56 31
0 17 78 31
0 18 97 31
0 19 88 31
1 2 1 3
1 3 3 1
1 4 16 6
1 5 15 8
1 6 19 9
1 7 15 5
1 8 2 2
1 9 2 1
1 10 60 19
1 11 60 19
1 12 60 19
1 13 60 19
1 14 60 19
1 15 60 19
1 16 45 17
1 17 60 19
1 18 60 19
1 19 60 19
2 3 2 1
2 4 12 7
2 5 17 8
2 6 16 9
2 7 18 8
2 8 1 2
2 9 2 1
2 10 60 19
2 11 60 19
2 12 60 19
2 13 60 19
2 14 60 19
2 15 60 19
2 16 45 17
2 17 60 19
2 18 60 19
2 19 60 19
3 4 13 8
3 5 66 7
3 6 8 8
3 7 90 6
3 8 6 1
3 9 3 1
3 10 60 19
3 11 60 19
3 12 60 19
3 13 60 19
3 14 60 19
3 15 60 19
3 16 45 17
3 17 3 20
3 18 0 20
3 19 1 13
4 5 1 3
4 6 2 4
4 7 2 4
4 8 8 5
4 9 33 6
4 10 23 16
4 11 4 14
4 12 2 16
4 13 1 19
4 14 20 90
4 15 13 22
4 16 45 17
4 17 11 21
4 18 95 99
4 19 8 16
5 6 0 1
5 7 1 1
5 8 23 6
5 9 7 6
5 10 5 16
5 11 6 20
5 12 9 16
5 13 8 12
5 14 11 19
5 15 10 18
5 16 45 17
5 17 6 14
5 18 5 14
5 19 3 10
6 7 1 1
6 8 8 8
6 9 7 8
6 10 2 9
6 11 8 14
6 12 4 11
6 13 5 11
6 14 6 14
6 15 5 12
6 16 45 17
6 17 6 11
6 18 10 17
6 19 11 17
7 8 46 7
7 9 99 9
7 10 5 12
7 11 8 14
7 12 9 14
7 13 8 15
7 14 7 12
7 15 6 14
7 16 45 17
7 17 5 16
7 18 5 17
7 19 4 20
8 9 2 1
8 10 4 14
8 11 5 16
8 12 5 15
8 13 3 20
8 14 2 20
8 15 1 15
8 16 45 17
8 17 3 17
8 18 4 15
8 19 90 23
9 10 25 29
9 11 26 17
9 12 2 21
9 13 3 89
9 14 4 17
9 15 4 14
9 16 45 17
9 17 5 13
9 18 2 10
9 19 2 9
10 11 3 8
10 12 1 1
10 13 2 2
10 14 2 1
10 15 25 26
10 16 45 17
10 17 2 1
10 18 8 16
10 19 7 15
11 12 3 12
11 13 4 11
11 14 6 18
11 15 1 4
11 16 45 17
11 17 11 18
11 18 2 2
11 19 1 4
12 13 3 2
12 14 4 1
12 15 2 13
12 16 45 17
12 17 2 2
12 18 88 20
12 19 7 20
13 14 1 1
13 15 5 14
13 16 45 17
13 17 2 1
13 18 5 15
13 19 4 11
14 15 4 12
14 16 45 17
14 17 1 1
14 18 3 7
14 19 3 8
15 16 45 17
15 17 4 12
15 18 1 2
15 19 1 1
16 17 45 17
16 18 45 17
16 19 45 17
17 18 7 11
17 19 10 17
18 19 0 1